125393
66,59,44,10,27,28,87,1,58,76,89,93,12,23,92,9,19,81,42,106,8,97,55,29,30,5,52,65,31,98,13,88,69,6,40,56,20,16,64,90,17,21,77,46,86,25,45,100,51,82,72,2,62,22,48,85,36,71,54,95,67,41,11,104,38,105,101,3,78,96,94,70,18,49,37,39,73,33,84,53,7,32,63,75,35,103,4,15,61,47,14,99,68,50,26,34,83,57,80,74,102,24,43,79,91,60